Problem:    Ferrovie
Rows:       74
Columns:    48
Non-zeros:  192
Status:     OPTIMAL
Objective:  z = 82100 (MAXimum)

   No.   Row name   St   Activity     Lower bound   Upper bound    Marginal
------ ------------ -- ------------- ------------- ------------- -------------
     1 conservazioneFlusso[1,A]
                    NS             0            -0             =           -15 
     2 conservazioneFlusso[1,B]
                    NS             0            -0             =         < eps
     3 conservazioneFlusso[1,C]
                    NS             0            -0             =         < eps
     4 conservazioneFlusso[2,A]
                    NS             0            -0             =           -30 
     5 conservazioneFlusso[2,B]
                    NS             0            -0             =         < eps
     6 conservazioneFlusso[2,C]
                    NS             0            -0             =           -15 
     7 conservazioneFlusso[3,A]
                    NS             0            -0             =           -80 
     8 conservazioneFlusso[3,B]
                    NS             0            -0             =           -65 
     9 conservazioneFlusso[3,C]
                    NS             0            -0             =           -65 
    10 conservazioneFlusso[4,A]
                    NS             0            -0             =           -80 
    11 conservazioneFlusso[4,B]
                    NS             0            -0             =           -50 
    12 conservazioneFlusso[4,C]
                    NS             0            -0             =           -65 
    13 conservazioneFlusso[5,A]
                    NS             0            -0             =           -80 
    14 conservazioneFlusso[5,B]
                    NS             0            -0             =           -50 
    15 conservazioneFlusso[5,C]
                    NS             0            -0             =           -65 
    16 conservazioneFlusso[6,A]
                    NS             0            -0             =           -80 
    17 conservazioneFlusso[6,B]
                    NS             0            -0             =           -50 
    18 conservazioneFlusso[6,C]
                    NS             0            -0             =           -65 
    19 conservazioneFlusso[7,A]
                    NS             0            -0             =           -80 
    20 conservazioneFlusso[7,B]
                    NS             0            -0             =           -50 
    21 conservazioneFlusso[7,C]
                    NS             0            -0             =           -65 
    22 conservazioneFlusso[8,A]
                    NS             0            -0             =           -80 
    23 conservazioneFlusso[8,B]
                    NS             0            -0             =           -50 
    24 conservazioneFlusso[8,C]
                    NS             0            -0             =           -65 
    25 capacitaArchi[0,1]
                    B           -760          -800               
    26 capacitaArchi[0,2]
                    B           -384          -480               
    27 capacitaArchi[1,3]
                    NL          -400          -400                         -65 
    28 capacitaArchi[1,4]
                    NL          -360          -360                         -65 
    29 capacitaArchi[2,4]
                    NL          -256          -256                         -50 
    30 capacitaArchi[2,5]
                    NL          -128          -128                         -50 
    31 capacitaArchi[3,6]
                    B           -302          -320               
    32 capacitaArchi[3,7]
                    B            -98          -384               
    33 capacitaArchi[4,6]
                    B           -184          -240               
    34 capacitaArchi[4,7]
                    NL          -192          -192                       < eps
    35 capacitaArchi[4,8]
                    NL          -240          -240                       < eps
    36 capacitaArchi[5,7]
                    B            -10          -720               
    37 capacitaArchi[5,8]
                    B           -118          -400               
    38 capacitaArchi[6,9]
                    NL          -486          -486                       < eps
    39 capacitaArchi[7,9]
                    NL          -300          -300                       < eps
    40 capacitaArchi[8,9]
                    B           -358          -396               
    41 capacitaNodi[0,A]
                    B              0                        1000 
    42 capacitaNodi[0,B]
                    B              0                        1000 
    43 capacitaNodi[0,C]
                    B              0                        1000 
    44 capacitaNodi[1,A]
                    NU           300                         300            15 
    45 capacitaNodi[1,B]
                    B              0                        1800 
    46 capacitaNodi[1,C]
                    B            460                        1400 
    47 capacitaNodi[2,A]
                    NU           250                         250            30 
    48 capacitaNodi[2,B]
                    B             34                         900 
    49 capacitaNodi[2,C]
                    NU           100                         100            15 
    50 capacitaNodi[3,A]
                    B              0                         900 
    51 capacitaNodi[3,B]
                    B              0                         650 
    52 capacitaNodi[3,C]
                    B            400                        1400 
    53 capacitaNodi[4,A]
                    B            422                        2000 
    54 capacitaNodi[4,B]
                    B             34                        1500 
    55 capacitaNodi[4,C]
                    B            160                        2000 
    56 capacitaNodi[5,A]
                    B            128                        1000 
    57 capacitaNodi[5,B]
                    B              0                        1000 
    58 capacitaNodi[5,C]
                    B              0                        1000 
    59 capacitaNodi[6,A]
                    B            184                        1200 
    60 capacitaNodi[6,B]
                    B              0                        1200 
    61 capacitaNodi[6,C]
                    B            302                        1400 
    62 capacitaNodi[7,A]
                    B            202                         600 
    63 capacitaNodi[7,B]
                    B              0                         700 
    64 capacitaNodi[7,C]
                    B             98                         950 
    65 capacitaNodi[8,A]
                    B            164                         300 
    66 capacitaNodi[8,B]
                    B             34                        1700 
    67 capacitaNodi[8,C]
                    B            160                        1900 
    68 capacitaNodi[9,A]
                    B            550                        1000 
    69 capacitaNodi[9,B]
                    B             34                        1000 
    70 capacitaNodi[9,C]
                    B            560                        1000 
    71 limiteStazioneOrigine[A]
                    B            550                        1000 
    72 limiteStazioneOrigine[B]
                    B             34                        1000 
    73 limiteStazioneOrigine[C]
                    B            560                        1000 
    74 z            B          82100                             

   No. Column name  St   Activity     Lower bound   Upper bound    Marginal
------ ------------ -- ------------- ------------- ------------- -------------
     1 x[0,1,A]     B            300             0               
     2 x[1,3,A]     B              0             0               
     3 x[1,4,A]     B            300             0               
     4 x[0,1,B]     B              0             0               
     5 x[1,3,B]     B              0             0               
     6 x[1,4,B]     NL             0             0                         -15 
     7 x[0,1,C]     B            460             0               
     8 x[1,3,C]     B            400             0               
     9 x[1,4,C]     B             60             0               
    10 x[0,2,A]     B            250             0               
    11 x[2,4,A]     B            122             0               
    12 x[2,5,A]     B            128             0               
    13 x[0,2,B]     B             34             0               
    14 x[2,4,B]     B             34             0               
    15 x[2,5,B]     B              0             0               
    16 x[0,2,C]     B            100             0               
    17 x[2,4,C]     B            100             0               
    18 x[2,5,C]     B              0             0               
    19 x[3,6,A]     NL             0             0                       < eps
    20 x[3,7,A]     NL             0             0                       < eps
    21 x[3,6,B]     NL             0             0                         -15 
    22 x[3,7,B]     NL             0             0                         -15 
    23 x[3,6,C]     B            302             0               
    24 x[3,7,C]     B             98             0               
    25 x[4,6,A]     B            184             0               
    26 x[4,7,A]     B            192             0               
    27 x[4,8,A]     B             46             0               
    28 x[4,6,B]     NL             0             0                       < eps
    29 x[4,7,B]     NL             0             0                       < eps
    30 x[4,8,B]     B             34             0               
    31 x[4,6,C]     NL             0             0                       < eps
    32 x[4,7,C]     NL             0             0                       < eps
    33 x[4,8,C]     B            160             0               
    34 x[5,7,A]     B             10             0               
    35 x[5,8,A]     B            118             0               
    36 x[5,7,B]     NL             0             0                       < eps
    37 x[5,8,B]     NL             0             0                       < eps
    38 x[5,7,C]     NL             0             0                       < eps
    39 x[5,8,C]     NL             0             0                       < eps
    40 x[6,9,A]     B            184             0               
    41 x[6,9,B]     B              0             0               
    42 x[6,9,C]     B            302             0               
    43 x[7,9,A]     B            202             0               
    44 x[7,9,B]     B              0             0               
    45 x[7,9,C]     B             98             0               
    46 x[8,9,A]     B            164             0               
    47 x[8,9,B]     B             34             0               
    48 x[8,9,C]     B            160             0               

Karush-Kuhn-Tucker optimality conditions:

KKT.PE: max.abs.err = 0.00e+000 on row 0
        max.rel.err = 0.00e+000 on row 0
        High quality

KKT.PB: max.abs.err = 0.00e+000 on row 0
        max.rel.err = 0.00e+000 on row 0
        High quality

KKT.DE: max.abs.err = 0.00e+000 on column 0
        max.rel.err = 0.00e+000 on column 0
        High quality

KKT.DB: max.abs.err = 0.00e+000 on row 0
        max.rel.err = 0.00e+000 on row 0
        High quality

End of output
